\* sidsproblem *\
Minimize
OBJ: x__L_38_
Subject To
_C1: 10 x__3_0_10_ + 11 x__3_0_11_ + 12 x__3_0_12_ + 13 x__3_0_13_
 + 14 x__3_0_14_ + 15 x__3_0_15_ + 16 x__3_0_16_ + 17 x__3_0_17_
 + 18 x__3_0_18_ + 19 x__3_0_19_ + x__3_0_1_ + 20 x__3_0_20_ + 21 x__3_0_21_
 + 22 x__3_0_22_ + 23 x__3_0_23_ + 24 x__3_0_24_ + 25 x__3_0_25_
 + 26 x__3_0_26_ + 27 x__3_0_27_ + 28 x__3_0_28_ + 29 x__3_0_29_ + 2 x__3_0_2_
 + 30 x__3_0_30_ + 31 x__3_0_31_ + 32 x__3_0_32_ + 33 x__3_0_33_
 + 34 x__3_0_34_ + 35 x__3_0_35_ + 36 x__3_0_36_ + 37 x__3_0_37_
 + 38 x__3_0_38_ + 39 x__3_0_39_ + 3 x__3_0_3_ + 40 x__3_0_40_ + 41 x__3_0_41_
 + 42 x__3_0_42_ + 43 x__3_0_43_ + 44 x__3_0_44_ + 45 x__3_0_45_
 + 46 x__3_0_46_ + 47 x__3_0_47_ + 48 x__3_0_48_ + 49 x__3_0_49_ + 4 x__3_0_4_
 + 50 x__3_0_50_ + 51 x__3_0_51_ + 52 x__3_0_52_ + 53 x__3_0_53_
 + 54 x__3_0_54_ + 55 x__3_0_55_ + 56 x__3_0_56_ + 57 x__3_0_57_
 + 58 x__3_0_58_ + 59 x__3_0_59_ + 5 x__3_0_5_ + 60 x__3_0_60_ + 61 x__3_0_61_
 + 62 x__3_0_62_ + 63 x__3_0_63_ + 64 x__3_0_64_ + 65 x__3_0_65_
 + 66 x__3_0_66_ + 67 x__3_0_67_ + 68 x__3_0_68_ + 69 x__3_0_69_ + 6 x__3_0_6_
 + 70 x__3_0_70_ + 71 x__3_0_71_ + 72 x__3_0_72_ + 73 x__3_0_73_
 + 74 x__3_0_74_ + 75 x__3_0_75_ + 76 x__3_0_76_ + 77 x__3_0_77_
 + 78 x__3_0_78_ + 79 x__3_0_79_ + 7 x__3_0_7_ + 80 x__3_0_80_ + 8 x__3_0_8_
 + 9 x__3_0_9_ - 56 x__E_3_0_ = 0
_C10: x__6_19_0_ + x__6_19_10_ + x__6_19_11_ + x__6_19_12_ + x__6_19_13_
 + x__6_19_14_ + x__6_19_15_ + x__6_19_16_ + x__6_19_17_ + x__6_19_18_
 + x__6_19_19_ + x__6_19_1_ + x__6_19_20_ + x__6_19_21_ + x__6_19_22_
 + x__6_19_23_ + x__6_19_24_ + x__6_19_25_ + x__6_19_26_ + x__6_19_27_
 + x__6_19_28_ + x__6_19_29_ + x__6_19_2_ + x__6_19_30_ + x__6_19_31_
 + x__6_19_32_ + x__6_19_33_ + x__6_19_34_ + x__6_19_35_ + x__6_19_36_
 + x__6_19_37_ + x__6_19_38_ + x__6_19_39_ + x__6_19_3_ + x__6_19_40_
 + x__6_19_41_ + x__6_19_42_ + x__6_19_43_ + x__6_19_44_ + x__6_19_45_
 + x__6_19_46_ + x__6_19_47_ + x__6_19_48_ + x__6_19_49_ + x__6_19_4_
 + x__6_19_50_ + x__6_19_51_ + x__6_19_52_ + x__6_19_53_ + x__6_19_54_
 + x__6_19_55_ + x__6_19_56_ + x__6_19_57_ + x__6_19_58_ + x__6_19_59_
 + x__6_19_5_ + x__6_19_60_ + x__6_19_61_ + x__6_19_62_ + x__6_19_63_
 + x__6_19_64_ + x__6_19_65_ + x__6_19_66_ + x__6_19_67_ + x__6_19_68_
 + x__6_19_69_ + x__6_19_6_ + x__6_19_70_ + x__6_19_71_ + x__6_19_72_
 + x__6_19_73_ + x__6_19_74_ + x__6_19_75_ + x__6_19_76_ + x__6_19_77_
 + x__6_19_78_ + x__6_19_79_ + x__6_19_7_ + x__6_19_80_ + x__6_19_8_
 + x__6_19_9_ = 588
_C100: x__3_0_70_ + x__4_0_70_ + x__5_0_70_ + x__6_0_70_ + x__6_19_70_
 + x__7_0_70_ + x__7_19_70_ + x__8_0_70_ + x__8_19_70_ + x__8_38_70_
 <= 5.69851244694e+224
_C101: x__3_0_71_ + x__4_0_71_ + x__5_0_71_ + x__6_0_71_ + x__6_19_71_
 + x__7_0_71_ + x__7_19_71_ + x__8_0_71_ + x__8_19_71_ + x__8_38_71_
 <= 2.76434838801e+228
_C102: x__3_0_72_ + x__4_0_72_ + x__5_0_72_ + x__6_0_72_ + x__6_19_72_
 + x__7_0_72_ + x__7_19_72_ + x__8_0_72_ + x__8_19_72_ + x__8_38_72_
 <= 1.36835245206e+232
_C103: x__3_0_73_ + x__4_0_73_ + x__5_0_73_ + x__6_0_73_ + x__6_19_73_
 + x__7_0_73_ + x__7_19_73_ + x__8_0_73_ + x__8_19_73_ + x__8_38_73_
 <= 6.91017988292e+235
_C104: x__3_0_74_ + x__4_0_74_ + x__5_0_74_ + x__6_0_74_ + x__6_19_74_
 + x__7_0_74_ + x__7_19_74_ + x__8_0_74_ + x__8_19_74_ + x__8_38_74_
 <= 3.55943365769e+239
_C105: x__3_0_75_ + x__4_0_75_ + x__5_0_75_ + x__6_0_75_ + x__6_19_75_
 + x__7_0_75_ + x__7_19_75_ + x__8_0_75_ + x__8_19_75_ + x__8_38_75_
 <= 1.86977050039e+243
_C106: x__3_0_76_ + x__4_0_76_ + x__5_0_76_ + x__6_0_76_ + x__6_19_76_
 + x__7_0_76_ + x__7_19_76_ + x__8_0_76_ + x__8_19_76_ + x__8_38_76_
 <= 1.00144908001e+247
_C107: x__3_0_77_ + x__4_0_77_ + x__5_0_77_ + x__6_0_77_ + x__6_19_77_
 + x__7_0_77_ + x__7_19_77_ + x__8_0_77_ + x__8_19_77_ + x__8_38_77_
 <= 5.46791197684e+250
_C108: x__3_0_78_ + x__4_0_78_ + x__5_0_78_ + x__6_0_78_ + x__6_19_78_
 + x__7_0_78_ + x__7_19_78_ + x__8_0_78_ + x__8_19_78_ + x__8_38_78_
 <= 3.04289301511e+254
_C109: x__3_0_79_ + x__4_0_79_ + x__5_0_79_ + x__6_0_79_ + x__6_19_79_
 + x__7_0_79_ + x__7_19_79_ + x__8_0_79_ + x__8_19_79_ + x__8_38_79_
 <= 1.72562462887e+258
_C11: 10 x__7_0_10_ + 11 x__7_0_11_ + 12 x__7_0_12_ + 13 x__7_0_13_
 + 14 x__7_0_14_ + 15 x__7_0_15_ + 16 x__7_0_16_ + 17 x__7_0_17_
 + 18 x__7_0_18_ + 19 x__7_0_19_ + x__7_0_1_ + 20 x__7_0_20_ + 21 x__7_0_21_
 + 22 x__7_0_22_ + 23 x__7_0_23_ + 24 x__7_0_24_ + 25 x__7_0_25_
 + 26 x__7_0_26_ + 27 x__7_0_27_ + 28 x__7_0_28_ + 29 x__7_0_29_ + 2 x__7_0_2_
 + 30 x__7_0_30_ + 31 x__7_0_31_ + 32 x__7_0_32_ + 33 x__7_0_33_
 + 34 x__7_0_34_ + 35 x__7_0_35_ + 36 x__7_0_36_ + 37 x__7_0_37_
 + 38 x__7_0_38_ + 39 x__7_0_39_ + 3 x__7_0_3_ + 40 x__7_0_40_ + 41 x__7_0_41_
 + 42 x__7_0_42_ + 43 x__7_0_43_ + 44 x__7_0_44_ + 45 x__7_0_45_
 + 46 x__7_0_46_ + 47 x__7_0_47_ + 48 x__7_0_48_ + 49 x__7_0_49_ + 4 x__7_0_4_
 + 50 x__7_0_50_ + 51 x__7_0_51_ + 52 x__7_0_52_ + 53 x__7_0_53_
 + 54 x__7_0_54_ + 55 x__7_0_55_ + 56 x__7_0_56_ + 57 x__7_0_57_
 + 58 x__7_0_58_ + 59 x__7_0_59_ + 5 x__7_0_5_ + 60 x__7_0_60_ + 61 x__7_0_61_
 + 62 x__7_0_62_ + 63 x__7_0_63_ + 64 x__7_0_64_ + 65 x__7_0_65_
 + 66 x__7_0_66_ + 67 x__7_0_67_ + 68 x__7_0_68_ + 69 x__7_0_69_ + 6 x__7_0_6_
 + 70 x__7_0_70_ + 71 x__7_0_71_ + 72 x__7_0_72_ + 73 x__7_0_73_
 + 74 x__7_0_74_ + 75 x__7_0_75_ + 76 x__7_0_76_ + 77 x__7_0_77_
 + 78 x__7_0_78_ + 79 x__7_0_79_ + 7 x__7_0_7_ + 80 x__7_0_80_ + 8 x__7_0_8_
 + 9 x__7_0_9_ - 173680943584 x__E_7_0_ = 0
_C110: x__3_0_80_ + x__4_0_80_ + x__5_0_80_ + x__6_0_80_ + x__6_19_80_
 + x__7_0_80_ + x__7_19_80_ + x__8_0_80_ + x__8_19_80_ + x__8_38_80_
 <= 9.97065910561e+261
_C111: - x__V_3_ + x__V_4_ >= 1
_C112: - x__V_4_ + x__V_5_ >= 1
_C113: - x__V_5_ + x__V_6_ >= 1
_C114: - x__V_6_ + x__V_7_ >= 1
_C115: - x__V_7_ + x__V_8_ >= 1
_C12: x__7_0_0_ + x__7_0_10_ + x__7_0_11_ + x__7_0_12_ + x__7_0_13_
 + x__7_0_14_ + x__7_0_15_ + x__7_0_16_ + x__7_0_17_ + x__7_0_18_ + x__7_0_19_
 + x__7_0_1_ + x__7_0_20_ + x__7_0_21_ + x__7_0_22_ + x__7_0_23_ + x__7_0_24_
 + x__7_0_25_ + x__7_0_26_ + x__7_0_27_ + x__7_0_28_ + x__7_0_29_ + x__7_0_2_
 + x__7_0_30_ + x__7_0_31_ + x__7_0_32_ + x__7_0_33_ + x__7_0_34_ + x__7_0_35_
 + x__7_0_36_ + x__7_0_37_ + x__7_0_38_ + x__7_0_39_ + x__7_0_3_ + x__7_0_40_
 + x__7_0_41_ + x__7_0_42_ + x__7_0_43_ + x__7_0_44_ + x__7_0_45_ + x__7_0_46_
 + x__7_0_47_ + x__7_0_48_ + x__7_0_49_ + x__7_0_4_ + x__7_0_50_ + x__7_0_51_
 + x__7_0_52_ + x__7_0_53_ + x__7_0_54_ + x__7_0_55_ + x__7_0_56_ + x__7_0_57_
 + x__7_0_58_ + x__7_0_59_ + x__7_0_5_ + x__7_0_60_ + x__7_0_61_ + x__7_0_62_
 + x__7_0_63_ + x__7_0_64_ + x__7_0_65_ + x__7_0_66_ + x__7_0_67_ + x__7_0_68_
 + x__7_0_69_ + x__7_0_6_ + x__7_0_70_ + x__7_0_71_ + x__7_0_72_ + x__7_0_73_
 + x__7_0_74_ + x__7_0_75_ + x__7_0_76_ + x__7_0_77_ + x__7_0_78_ + x__7_0_79_
 + x__7_0_7_ + x__7_0_80_ + x__7_0_8_ + x__7_0_9_ = 173680943584
_C13: 10 x__7_19_10_ + 11 x__7_19_11_ + 12 x__7_19_12_ + 13 x__7_19_13_
 + 14 x__7_19_14_ + 15 x__7_19_15_ + 16 x__7_19_16_ + 17 x__7_19_17_
 + 18 x__7_19_18_ + 19 x__7_19_19_ + x__7_19_1_ + 20 x__7_19_20_
 + 21 x__7_19_21_ + 22 x__7_19_22_ + 23 x__7_19_23_ + 24 x__7_19_24_
 + 25 x__7_19_25_ + 26 x__7_19_26_ + 27 x__7_19_27_ + 28 x__7_19_28_
 + 29 x__7_19_29_ + 2 x__7_19_2_ + 30 x__7_19_30_ + 31 x__7_19_31_
 + 32 x__7_19_32_ + 33 x__7_19_33_ + 34 x__7_19_34_ + 35 x__7_19_35_
 + 36 x__7_19_36_ + 37 x__7_19_37_ + 38 x__7_19_38_ + 39 x__7_19_39_
 + 3 x__7_19_3_ + 40 x__7_19_40_ + 41 x__7_19_41_ + 42 x__7_19_42_
 + 43 x__7_19_43_ + 44 x__7_19_44_ + 45 x__7_19_45_ + 46 x__7_19_46_
 + 47 x__7_19_47_ + 48 x__7_19_48_ + 49 x__7_19_49_ + 4 x__7_19_4_
 + 50 x__7_19_50_ + 51 x__7_19_51_ + 52 x__7_19_52_ + 53 x__7_19_53_
 + 54 x__7_19_54_ + 55 x__7_19_55_ + 56 x__7_19_56_ + 57 x__7_19_57_
 + 58 x__7_19_58_ + 59 x__7_19_59_ + 5 x__7_19_5_ + 60 x__7_19_60_
 + 61 x__7_19_61_ + 62 x__7_19_62_ + 63 x__7_19_63_ + 64 x__7_19_64_
 + 65 x__7_19_65_ + 66 x__7_19_66_ + 67 x__7_19_67_ + 68 x__7_19_68_
 + 69 x__7_19_69_ + 6 x__7_19_6_ + 70 x__7_19_70_ + 71 x__7_19_71_
 + 72 x__7_19_72_ + 73 x__7_19_73_ + 74 x__7_19_74_ + 75 x__7_19_75_
 + 76 x__7_19_76_ + 77 x__7_19_77_ + 78 x__7_19_78_ + 79 x__7_19_79_
 + 7 x__7_19_7_ + 80 x__7_19_80_ + 8 x__7_19_8_ + 9 x__7_19_9_
 - 101138411096 x__E_7_19_ = 0
_C14: x__7_19_0_ + x__7_19_10_ + x__7_19_11_ + x__7_19_12_ + x__7_19_13_
 + x__7_19_14_ + x__7_19_15_ + x__7_19_16_ + x__7_19_17_ + x__7_19_18_
 + x__7_19_19_ + x__7_19_1_ + x__7_19_20_ + x__7_19_21_ + x__7_19_22_
 + x__7_19_23_ + x__7_19_24_ + x__7_19_25_ + x__7_19_26_ + x__7_19_27_
 + x__7_19_28_ + x__7_19_29_ + x__7_19_2_ + x__7_19_30_ + x__7_19_31_
 + x__7_19_32_ + x__7_19_33_ + x__7_19_34_ + x__7_19_35_ + x__7_19_36_
 + x__7_19_37_ + x__7_19_38_ + x__7_19_39_ + x__7_19_3_ + x__7_19_40_
 + x__7_19_41_ + x__7_19_42_ + x__7_19_43_ + x__7_19_44_ + x__7_19_45_
 + x__7_19_46_ + x__7_19_47_ + x__7_19_48_ + x__7_19_49_ + x__7_19_4_
 + x__7_19_50_ + x__7_19_51_ + x__7_19_52_ + x__7_19_53_ + x__7_19_54_
 + x__7_19_55_ + x__7_19_56_ + x__7_19_57_ + x__7_19_58_ + x__7_19_59_
 + x__7_19_5_ + x__7_19_60_ + x__7_19_61_ + x__7_19_62_ + x__7_19_63_
 + x__7_19_64_ + x__7_19_65_ + x__7_19_66_ + x__7_19_67_ + x__7_19_68_
 + x__7_19_69_ + x__7_19_6_ + x__7_19_70_ + x__7_19_71_ + x__7_19_72_
 + x__7_19_73_ + x__7_19_74_ + x__7_19_75_ + x__7_19_76_ + x__7_19_77_
 + x__7_19_78_ + x__7_19_79_ + x__7_19_7_ + x__7_19_80_ + x__7_19_8_
 + x__7_19_9_ = 101138411096
_C15: 10 x__8_0_10_ + 11 x__8_0_11_ + 12 x__8_0_12_ + 13 x__8_0_13_
 + 14 x__8_0_14_ + 15 x__8_0_15_ + 16 x__8_0_16_ + 17 x__8_0_17_
 + 18 x__8_0_18_ + 19 x__8_0_19_ + x__8_0_1_ + 20 x__8_0_20_ + 21 x__8_0_21_
 + 22 x__8_0_22_ + 23 x__8_0_23_ + 24 x__8_0_24_ + 25 x__8_0_25_
 + 26 x__8_0_26_ + 27 x__8_0_27_ + 28 x__8_0_28_ + 29 x__8_0_29_ + 2 x__8_0_2_
 + 30 x__8_0_30_ + 31 x__8_0_31_ + 32 x__8_0_32_ + 33 x__8_0_33_
 + 34 x__8_0_34_ + 35 x__8_0_35_ + 36 x__8_0_36_ + 37 x__8_0_37_
 + 38 x__8_0_38_ + 39 x__8_0_39_ + 3 x__8_0_3_ + 40 x__8_0_40_ + 41 x__8_0_41_
 + 42 x__8_0_42_ + 43 x__8_0_43_ + 44 x__8_0_44_ + 45 x__8_0_45_
 + 46 x__8_0_46_ + 47 x__8_0_47_ + 48 x__8_0_48_ + 49 x__8_0_49_ + 4 x__8_0_4_
 + 50 x__8_0_50_ + 51 x__8_0_51_ + 52 x__8_0_52_ + 53 x__8_0_53_
 + 54 x__8_0_54_ + 55 x__8_0_55_ + 56 x__8_0_56_ + 57 x__8_0_57_
 + 58 x__8_0_58_ + 59 x__8_0_59_ + 5 x__8_0_5_ + 60 x__8_0_60_ + 61 x__8_0_61_
 + 62 x__8_0_62_ + 63 x__8_0_63_ + 64 x__8_0_64_ + 65 x__8_0_65_
 + 66 x__8_0_66_ + 67 x__8_0_67_ + 68 x__8_0_68_ + 69 x__8_0_69_ + 6 x__8_0_6_
 + 70 x__8_0_70_ + 71 x__8_0_71_ + 72 x__8_0_72_ + 73 x__8_0_73_
 + 74 x__8_0_74_ + 75 x__8_0_75_ + 76 x__8_0_76_ + 77 x__8_0_77_
 + 78 x__8_0_78_ + 79 x__8_0_79_ + 7 x__8_0_7_ + 80 x__8_0_80_ + 8 x__8_0_8_
 + 9 x__8_0_9_ - 3.76500816998e+14 x__E_8_0_ = 0
_C16: x__8_0_0_ + x__8_0_10_ + x__8_0_11_ + x__8_0_12_ + x__8_0_13_
 + x__8_0_14_ + x__8_0_15_ + x__8_0_16_ + x__8_0_17_ + x__8_0_18_ + x__8_0_19_
 + x__8_0_1_ + x__8_0_20_ + x__8_0_21_ + x__8_0_22_ + x__8_0_23_ + x__8_0_24_
 + x__8_0_25_ + x__8_0_26_ + x__8_0_27_ + x__8_0_28_ + x__8_0_29_ + x__8_0_2_
 + x__8_0_30_ + x__8_0_31_ + x__8_0_32_ + x__8_0_33_ + x__8_0_34_ + x__8_0_35_
 + x__8_0_36_ + x__8_0_37_ + x__8_0_38_ + x__8_0_39_ + x__8_0_3_ + x__8_0_40_
 + x__8_0_41_ + x__8_0_42_ + x__8_0_43_ + x__8_0_44_ + x__8_0_45_ + x__8_0_46_
 + x__8_0_47_ + x__8_0_48_ + x__8_0_49_ + x__8_0_4_ + x__8_0_50_ + x__8_0_51_
 + x__8_0_52_ + x__8_0_53_ + x__8_0_54_ + x__8_0_55_ + x__8_0_56_ + x__8_0_57_
 + x__8_0_58_ + x__8_0_59_ + x__8_0_5_ + x__8_0_60_ + x__8_0_61_ + x__8_0_62_
 + x__8_0_63_ + x__8_0_64_ + x__8_0_65_ + x__8_0_66_ + x__8_0_67_ + x__8_0_68_
 + x__8_0_69_ + x__8_0_6_ + x__8_0_70_ + x__8_0_71_ + x__8_0_72_ + x__8_0_73_
 + x__8_0_74_ + x__8_0_75_ + x__8_0_76_ + x__8_0_77_ + x__8_0_78_ + x__8_0_79_
 + x__8_0_7_ + x__8_0_80_ + x__8_0_8_ + x__8_0_9_ = 3.76500816998e+14
_C17: 10 x__8_19_10_ + 11 x__8_19_11_ + 12 x__8_19_12_ + 13 x__8_19_13_
 + 14 x__8_19_14_ + 15 x__8_19_15_ + 16 x__8_19_16_ + 17 x__8_19_17_
 + 18 x__8_19_18_ + 19 x__8_19_19_ + x__8_19_1_ + 20 x__8_19_20_
 + 21 x__8_19_21_ + 22 x__8_19_22_ + 23 x__8_19_23_ + 24 x__8_19_24_
 + 25 x__8_19_25_ + 26 x__8_19_26_ + 27 x__8_19_27_ + 28 x__8_19_28_
 + 29 x__8_19_29_ + 2 x__8_19_2_ + 30 x__8_19_30_ + 31 x__8_19_31_
 + 32 x__8_19_32_ + 33 x__8_19_33_ + 34 x__8_19_34_ + 35 x__8_19_35_
 + 36 x__8_19_36_ + 37 x__8_19_37_ + 38 x__8_19_38_ + 39 x__8_19_39_
 + 3 x__8_19_3_ + 40 x__8_19_40_ + 41 x__8_19_41_ + 42 x__8_19_42_
 + 43 x__8_19_43_ + 44 x__8_19_44_ + 45 x__8_19_45_ + 46 x__8_19_46_
 + 47 x__8_19_47_ + 48 x__8_19_48_ + 49 x__8_19_49_ + 4 x__8_19_4_
 + 50 x__8_19_50_ + 51 x__8_19_51_ + 52 x__8_19_52_ + 53 x__8_19_53_
 + 54 x__8_19_54_ + 55 x__8_19_55_ + 56 x__8_19_56_ + 57 x__8_19_57_
 + 58 x__8_19_58_ + 59 x__8_19_59_ + 5 x__8_19_5_ + 60 x__8_19_60_
 + 61 x__8_19_61_ + 62 x__8_19_62_ + 63 x__8_19_63_ + 64 x__8_19_64_
 + 65 x__8_19_65_ + 66 x__8_19_66_ + 67 x__8_19_67_ + 68 x__8_19_68_
 + 69 x__8_19_69_ + 6 x__8_19_6_ + 70 x__8_19_70_ + 71 x__8_19_71_
 + 72 x__8_19_72_ + 73 x__8_19_73_ + 74 x__8_19_74_ + 75 x__8_19_75_
 + 76 x__8_19_76_ + 77 x__8_19_77_ + 78 x__8_19_78_ + 79 x__8_19_79_
 + 7 x__8_19_7_ + 80 x__8_19_80_ + 8 x__8_19_8_ + 9 x__8_19_9_
 - 7.13041438451e+16 x__E_8_19_ = 0
_C18: x__8_19_0_ + x__8_19_10_ + x__8_19_11_ + x__8_19_12_ + x__8_19_13_
 + x__8_19_14_ + x__8_19_15_ + x__8_19_16_ + x__8_19_17_ + x__8_19_18_
 + x__8_19_19_ + x__8_19_1_ + x__8_19_20_ + x__8_19_21_ + x__8_19_22_
 + x__8_19_23_ + x__8_19_24_ + x__8_19_25_ + x__8_19_26_ + x__8_19_27_
 + x__8_19_28_ + x__8_19_29_ + x__8_19_2_ + x__8_19_30_ + x__8_19_31_
 + x__8_19_32_ + x__8_19_33_ + x__8_19_34_ + x__8_19_35_ + x__8_19_36_
 + x__8_19_37_ + x__8_19_38_ + x__8_19_39_ + x__8_19_3_ + x__8_19_40_
 + x__8_19_41_ + x__8_19_42_ + x__8_19_43_ + x__8_19_44_ + x__8_19_45_
 + x__8_19_46_ + x__8_19_47_ + x__8_19_48_ + x__8_19_49_ + x__8_19_4_
 + x__8_19_50_ + x__8_19_51_ + x__8_19_52_ + x__8_19_53_ + x__8_19_54_
 + x__8_19_55_ + x__8_19_56_ + x__8_19_57_ + x__8_19_58_ + x__8_19_59_
 + x__8_19_5_ + x__8_19_60_ + x__8_19_61_ + x__8_19_62_ + x__8_19_63_
 + x__8_19_64_ + x__8_19_65_ + x__8_19_66_ + x__8_19_67_ + x__8_19_68_
 + x__8_19_69_ + x__8_19_6_ + x__8_19_70_ + x__8_19_71_ + x__8_19_72_
 + x__8_19_73_ + x__8_19_74_ + x__8_19_75_ + x__8_19_76_ + x__8_19_77_
 + x__8_19_78_ + x__8_19_79_ + x__8_19_7_ + x__8_19_80_ + x__8_19_8_
 + x__8_19_9_ = 7.13041438451e+16
_C19: 10 x__8_38_10_ + 11 x__8_38_11_ + 12 x__8_38_12_ + 13 x__8_38_13_
 + 14 x__8_38_14_ + 15 x__8_38_15_ + 16 x__8_38_16_ + 17 x__8_38_17_
 + 18 x__8_38_18_ + 19 x__8_38_19_ + x__8_38_1_ + 20 x__8_38_20_
 + 21 x__8_38_21_ + 22 x__8_38_22_ + 23 x__8_38_23_ + 24 x__8_38_24_
 + 25 x__8_38_25_ + 26 x__8_38_26_ + 27 x__8_38_27_ + 28 x__8_38_28_
 + 29 x__8_38_29_ + 2 x__8_38_2_ + 30 x__8_38_30_ + 31 x__8_38_31_
 + 32 x__8_38_32_ + 33 x__8_38_33_ + 34 x__8_38_34_ + 35 x__8_38_35_
 + 36 x__8_38_36_ + 37 x__8_38_37_ + 38 x__8_38_38_ + 39 x__8_38_39_
 + 3 x__8_38_3_ + 40 x__8_38_40_ + 41 x__8_38_41_ + 42 x__8_38_42_
 + 43 x__8_38_43_ + 44 x__8_38_44_ + 45 x__8_38_45_ + 46 x__8_38_46_
 + 47 x__8_38_47_ + 48 x__8_38_48_ + 49 x__8_38_49_ + 4 x__8_38_4_
 + 50 x__8_38_50_ + 51 x__8_38_51_ + 52 x__8_38_52_ + 53 x__8_38_53_
 + 54 x__8_38_54_ + 55 x__8_38_55_ + 56 x__8_38_56_ + 57 x__8_38_57_
 + 58 x__8_38_58_ + 59 x__8_38_59_ + 5 x__8_38_5_ + 60 x__8_38_60_
 + 61 x__8_38_61_ + 62 x__8_38_62_ + 63 x__8_38_63_ + 64 x__8_38_64_
 + 65 x__8_38_65_ + 66 x__8_38_66_ + 67 x__8_38_67_ + 68 x__8_38_68_
 + 69 x__8_38_69_ + 6 x__8_38_6_ + 70 x__8_38_70_ + 71 x__8_38_71_
 + 72 x__8_38_72_ + 73 x__8_38_73_ + 74 x__8_38_74_ + 75 x__8_38_75_
 + 76 x__8_38_76_ + 77 x__8_38_77_ + 78 x__8_38_78_ + 79 x__8_38_79_
 + 7 x__8_38_7_ + 80 x__8_38_80_ + 8 x__8_38_8_ + 9 x__8_38_9_
 - 3.7667452719e+14 x__E_8_38_ = 0
_C2: x__3_0_0_ + x__3_0_10_ + x__3_0_11_ + x__3_0_12_ + x__3_0_13_
 + x__3_0_14_ + x__3_0_15_ + x__3_0_16_ + x__3_0_17_ + x__3_0_18_ + x__3_0_19_
 + x__3_0_1_ + x__3_0_20_ + x__3_0_21_ + x__3_0_22_ + x__3_0_23_ + x__3_0_24_
 + x__3_0_25_ + x__3_0_26_ + x__3_0_27_ + x__3_0_28_ + x__3_0_29_ + x__3_0_2_
 + x__3_0_30_ + x__3_0_31_ + x__3_0_32_ + x__3_0_33_ + x__3_0_34_ + x__3_0_35_
 + x__3_0_36_ + x__3_0_37_ + x__3_0_38_ + x__3_0_39_ + x__3_0_3_ + x__3_0_40_
 + x__3_0_41_ + x__3_0_42_ + x__3_0_43_ + x__3_0_44_ + x__3_0_45_ + x__3_0_46_
 + x__3_0_47_ + x__3_0_48_ + x__3_0_49_ + x__3_0_4_ + x__3_0_50_ + x__3_0_51_
 + x__3_0_52_ + x__3_0_53_ + x__3_0_54_ + x__3_0_55_ + x__3_0_56_ + x__3_0_57_
 + x__3_0_58_ + x__3_0_59_ + x__3_0_5_ + x__3_0_60_ + x__3_0_61_ + x__3_0_62_
 + x__3_0_63_ + x__3_0_64_ + x__3_0_65_ + x__3_0_66_ + x__3_0_67_ + x__3_0_68_
 + x__3_0_69_ + x__3_0_6_ + x__3_0_70_ + x__3_0_71_ + x__3_0_72_ + x__3_0_73_
 + x__3_0_74_ + x__3_0_75_ + x__3_0_76_ + x__3_0_77_ + x__3_0_78_ + x__3_0_79_
 + x__3_0_7_ + x__3_0_80_ + x__3_0_8_ + x__3_0_9_ = 56
_C20: x__8_38_0_ + x__8_38_10_ + x__8_38_11_ + x__8_38_12_ + x__8_38_13_
 + x__8_38_14_ + x__8_38_15_ + x__8_38_16_ + x__8_38_17_ + x__8_38_18_
 + x__8_38_19_ + x__8_38_1_ + x__8_38_20_ + x__8_38_21_ + x__8_38_22_
 + x__8_38_23_ + x__8_38_24_ + x__8_38_25_ + x__8_38_26_ + x__8_38_27_
 + x__8_38_28_ + x__8_38_29_ + x__8_38_2_ + x__8_38_30_ + x__8_38_31_
 + x__8_38_32_ + x__8_38_33_ + x__8_38_34_ + x__8_38_35_ + x__8_38_36_
 + x__8_38_37_ + x__8_38_38_ + x__8_38_39_ + x__8_38_3_ + x__8_38_40_
 + x__8_38_41_ + x__8_38_42_ + x__8_38_43_ + x__8_38_44_ + x__8_38_45_
 + x__8_38_46_ + x__8_38_47_ + x__8_38_48_ + x__8_38_49_ + x__8_38_4_
 + x__8_38_50_ + x__8_38_51_ + x__8_38_52_ + x__8_38_53_ + x__8_38_54_
 + x__8_38_55_ + x__8_38_56_ + x__8_38_57_ + x__8_38_58_ + x__8_38_59_
 + x__8_38_5_ + x__8_38_60_ + x__8_38_61_ + x__8_38_62_ + x__8_38_63_
 + x__8_38_64_ + x__8_38_65_ + x__8_38_66_ + x__8_38_67_ + x__8_38_68_
 + x__8_38_69_ + x__8_38_6_ + x__8_38_70_ + x__8_38_71_ + x__8_38_72_
 + x__8_38_73_ + x__8_38_74_ + x__8_38_75_ + x__8_38_76_ + x__8_38_77_
 + x__8_38_78_ + x__8_38_79_ + x__8_38_7_ + x__8_38_80_ + x__8_38_8_
 + x__8_38_9_ = 3.7667452719e+14
_C21: 56 x__E_3_0_ - 56 x__V_3_ = 0
_C22: 770 x__E_4_0_ - 770 x__V_4_ = 0
_C23: 53648 x__E_5_0_ - 53648 x__V_5_ = 0
_C24: 29193388 x__E_6_0_ + 588 x__E_6_19_ - 29193976 x__V_6_ = 0
_C25: 173680943584 x__E_7_0_ + 101138411096 x__E_7_19_ - 274819354680 x__V_7_
 = 0
_C26: 3.76500816998e+14 x__E_8_0_ + 7.13041438451e+16 x__E_8_19_
 + 3.7667452719e+14 x__E_8_38_ - 7.20573191893e+16 x__V_8_ = 0
_C27: 56 x__E_3_0_ + 770 x__E_4_0_ + 53648 x__E_5_0_ + 29193388 x__E_6_0_
 + 173680943584 x__E_7_0_ + 3.76500816998e+14 x__E_8_0_
 - 3.7667452719e+14 x__L_0_ = 0
_C28: 588 x__E_6_19_ + 101138411096 x__E_7_19_ + 7.13041438451e+16 x__E_8_19_
 - 7.13042449835e+16 x__L_19_ = 0
_C29: 3.7667452719e+14 x__E_8_38_ - 3.7667452719e+14 x__L_38_ = 0
_C3: 10 x__4_0_10_ + 11 x__4_0_11_ + 12 x__4_0_12_ + 13 x__4_0_13_
 + 14 x__4_0_14_ + 15 x__4_0_15_ + 16 x__4_0_16_ + 17 x__4_0_17_
 + 18 x__4_0_18_ + 19 x__4_0_19_ + x__4_0_1_ + 20 x__4_0_20_ + 21 x__4_0_21_
 + 22 x__4_0_22_ + 23 x__4_0_23_ + 24 x__4_0_24_ + 25 x__4_0_25_
 + 26 x__4_0_26_ + 27 x__4_0_27_ + 28 x__4_0_28_ + 29 x__4_0_29_ + 2 x__4_0_2_
 + 30 x__4_0_30_ + 31 x__4_0_31_ + 32 x__4_0_32_ + 33 x__4_0_33_
 + 34 x__4_0_34_ + 35 x__4_0_35_ + 36 x__4_0_36_ + 37 x__4_0_37_
 + 38 x__4_0_38_ + 39 x__4_0_39_ + 3 x__4_0_3_ + 40 x__4_0_40_ + 41 x__4_0_41_
 + 42 x__4_0_42_ + 43 x__4_0_43_ + 44 x__4_0_44_ + 45 x__4_0_45_
 + 46 x__4_0_46_ + 47 x__4_0_47_ + 48 x__4_0_48_ + 49 x__4_0_49_ + 4 x__4_0_4_
 + 50 x__4_0_50_ + 51 x__4_0_51_ + 52 x__4_0_52_ + 53 x__4_0_53_
 + 54 x__4_0_54_ + 55 x__4_0_55_ + 56 x__4_0_56_ + 57 x__4_0_57_
 + 58 x__4_0_58_ + 59 x__4_0_59_ + 5 x__4_0_5_ + 60 x__4_0_60_ + 61 x__4_0_61_
 + 62 x__4_0_62_ + 63 x__4_0_63_ + 64 x__4_0_64_ + 65 x__4_0_65_
 + 66 x__4_0_66_ + 67 x__4_0_67_ + 68 x__4_0_68_ + 69 x__4_0_69_ + 6 x__4_0_6_
 + 70 x__4_0_70_ + 71 x__4_0_71_ + 72 x__4_0_72_ + 73 x__4_0_73_
 + 74 x__4_0_74_ + 75 x__4_0_75_ + 76 x__4_0_76_ + 77 x__4_0_77_
 + 78 x__4_0_78_ + 79 x__4_0_79_ + 7 x__4_0_7_ + 80 x__4_0_80_ + 8 x__4_0_8_
 + 9 x__4_0_9_ - 770 x__E_4_0_ = 0
_C30: x__3_0_0_ + x__4_0_0_ + x__5_0_0_ + x__6_0_0_ + x__6_19_0_ + x__7_0_0_
 + x__7_19_0_ + x__8_0_0_ + x__8_19_0_ + x__8_38_0_ <= 0
_C31: x__3_0_1_ + x__4_0_1_ + x__5_0_1_ + x__6_0_1_ + x__6_19_1_ + x__7_0_1_
 + x__7_19_1_ + x__8_0_1_ + x__8_19_1_ + x__8_38_1_ <= 1
_C32: x__3_0_2_ + x__4_0_2_ + x__5_0_2_ + x__6_0_2_ + x__6_19_2_ + x__7_0_2_
 + x__7_19_2_ + x__8_0_2_ + x__8_19_2_ + x__8_38_2_ <= 435
_C33: x__3_0_3_ + x__4_0_3_ + x__5_0_3_ + x__6_0_3_ + x__6_19_3_ + x__7_0_3_
 + x__7_19_3_ + x__8_0_3_ + x__8_19_3_ + x__8_38_3_ <= 202275
_C34: x__3_0_4_ + x__4_0_4_ + x__5_0_4_ + x__6_0_4_ + x__6_19_4_ + x__7_0_4_
 + x__7_19_4_ + x__8_0_4_ + x__8_19_4_ + x__8_38_4_ <= 100328400
_C35: x__3_0_5_ + x__4_0_5_ + x__5_0_5_ + x__6_0_5_ + x__6_19_5_ + x__7_0_5_
 + x__7_19_5_ + x__8_0_5_ + x__8_19_5_ + x__8_38_5_ <= 52973395200
_C36: x__3_0_6_ + x__4_0_6_ + x__5_0_6_ + x__6_0_6_ + x__6_19_6_ + x__7_0_6_
 + x__7_19_6_ + x__8_0_6_ + x__8_19_6_ + x__8_38_6_ <= 2.97180747072e+13
_C37: x__3_0_7_ + x__4_0_7_ + x__5_0_7_ + x__6_0_7_ + x__6_19_7_ + x__7_0_7_
 + x__7_19_7_ + x__8_0_7_ + x__8_19_7_ + x__8_38_7_ <= 1.76822544508e+16
_C38: x__3_0_8_ + x__4_0_8_ + x__5_0_8_ + x__6_0_8_ + x__6_19_8_ + x__7_0_8_
 + x__7_19_8_ + x__8_0_8_ + x__8_19_8_ + x__8_38_8_ <= 1.1139820304e+19
_C39: x__3_0_9_ + x__4_0_9_ + x__5_0_9_ + x__6_0_9_ + x__6_19_9_ + x__7_0_9_
 + x__7_19_9_ + x__8_0_9_ + x__8_19_9_ + x__8_38_9_ <= 7.41912032246e+21
_C4: x__4_0_0_ + x__4_0_10_ + x__4_0_11_ + x__4_0_12_ + x__4_0_13_
 + x__4_0_14_ + x__4_0_15_ + x__4_0_16_ + x__4_0_17_ + x__4_0_18_ + x__4_0_19_
 + x__4_0_1_ + x__4_0_20_ + x__4_0_21_ + x__4_0_22_ + x__4_0_23_ + x__4_0_24_
 + x__4_0_25_ + x__4_0_26_ + x__4_0_27_ + x__4_0_28_ + x__4_0_29_ + x__4_0_2_
 + x__4_0_30_ + x__4_0_31_ + x__4_0_32_ + x__4_0_33_ + x__4_0_34_ + x__4_0_35_
 + x__4_0_36_ + x__4_0_37_ + x__4_0_38_ + x__4_0_39_ + x__4_0_3_ + x__4_0_40_
 + x__4_0_41_ + x__4_0_42_ + x__4_0_43_ + x__4_0_44_ + x__4_0_45_ + x__4_0_46_
 + x__4_0_47_ + x__4_0_48_ + x__4_0_49_ + x__4_0_4_ + x__4_0_50_ + x__4_0_51_
 + x__4_0_52_ + x__4_0_53_ + x__4_0_54_ + x__4_0_55_ + x__4_0_56_ + x__4_0_57_
 + x__4_0_58_ + x__4_0_59_ + x__4_0_5_ + x__4_0_60_ + x__4_0_61_ + x__4_0_62_
 + x__4_0_63_ + x__4_0_64_ + x__4_0_65_ + x__4_0_66_ + x__4_0_67_ + x__4_0_68_
 + x__4_0_69_ + x__4_0_6_ + x__4_0_70_ + x__4_0_71_ + x__4_0_72_ + x__4_0_73_
 + x__4_0_74_ + x__4_0_75_ + x__4_0_76_ + x__4_0_77_ + x__4_0_78_ + x__4_0_79_
 + x__4_0_7_ + x__4_0_80_ + x__4_0_8_ + x__4_0_9_ = 770
_C40: x__3_0_10_ + x__4_0_10_ + x__5_0_10_ + x__6_0_10_ + x__6_19_10_
 + x__7_0_10_ + x__7_19_10_ + x__8_0_10_ + x__8_19_10_ + x__8_38_10_
 <= 5.21564158669e+24
_C41: x__3_0_11_ + x__4_0_11_ + x__5_0_11_ + x__6_0_11_ + x__6_19_11_
 + x__7_0_11_ + x__7_19_11_ + x__8_0_11_ + x__8_19_11_ + x__8_38_11_
 <= 3.86479041574e+27
_C42: x__3_0_12_ + x__4_0_12_ + x__5_0_12_ + x__6_0_12_ + x__6_19_12_
 + x__7_0_12_ + x__7_19_12_ + x__8_0_12_ + x__8_19_12_ + x__8_38_12_
 <= 3.01453652427e+30
_C43: x__3_0_13_ + x__4_0_13_ + x__5_0_13_ + x__6_0_13_ + x__6_19_13_
 + x__7_0_13_ + x__7_19_13_ + x__8_0_13_ + x__8_19_13_ + x__8_38_13_
 <= 2.47191994991e+33
_C44: x__3_0_14_ + x__4_0_14_ + x__5_0_14_ + x__6_0_14_ + x__6_19_14_
 + x__7_0_14_ + x__7_19_14_ + x__8_0_14_ + x__8_19_14_ + x__8_38_14_
 <= 2.12832307687e+36
_C45: x__3_0_15_ + x__4_0_15_ + x__5_0_15_ + x__6_0_15_ + x__6_19_15_
 + x__7_0_15_ + x__7_19_15_ + x__8_0_15_ + x__8_19_15_ + x__8_38_15_
 <= 1.92187573841e+39
_C46: x__3_0_16_ + x__4_0_16_ + x__5_0_16_ + x__6_0_16_ + x__6_19_16_
 + x__7_0_16_ + x__7_19_16_ + x__8_0_16_ + x__8_19_16_ + x__8_38_16_
 <= 1.81809444854e+42
_C47: x__3_0_17_ + x__4_0_17_ + x__5_0_17_ + x__6_0_17_ + x__6_19_17_
 + x__7_0_17_ + x__7_19_17_ + x__8_0_17_ + x__8_19_17_ + x__8_38_17_
 <= 1.79991350405e+45
_C48: x__3_0_18_ + x__4_0_18_ + x__5_0_18_ + x__6_0_18_ + x__6_19_18_
 + x__7_0_18_ + x__7_19_18_ + x__8_0_18_ + x__8_19_18_ + x__8_38_18_
 <= 1.86291047669e+48
_C49: x__3_0_19_ + x__4_0_19_ + x__5_0_19_ + x__6_0_19_ + x__6_19_19_
 + x__7_0_19_ + x__7_19_19_ + x__8_0_19_ + x__8_19_19_ + x__8_38_19_
 <= 2.01380622531e+51
_C5: 10 x__5_0_10_ + 11 x__5_0_11_ + 12 x__5_0_12_ + 13 x__5_0_13_
 + 14 x__5_0_14_ + 15 x__5_0_15_ + 16 x__5_0_16_ + 17 x__5_0_17_
 + 18 x__5_0_18_ + 19 x__5_0_19_ + x__5_0_1_ + 20 x__5_0_20_ + 21 x__5_0_21_
 + 22 x__5_0_22_ + 23 x__5_0_23_ + 24 x__5_0_24_ + 25 x__5_0_25_
 + 26 x__5_0_26_ + 27 x__5_0_27_ + 28 x__5_0_28_ + 29 x__5_0_29_ + 2 x__5_0_2_
 + 30 x__5_0_30_ + 31 x__5_0_31_ + 32 x__5_0_32_ + 33 x__5_0_33_
 + 34 x__5_0_34_ + 35 x__5_0_35_ + 36 x__5_0_36_ + 37 x__5_0_37_
 + 38 x__5_0_38_ + 39 x__5_0_39_ + 3 x__5_0_3_ + 40 x__5_0_40_ + 41 x__5_0_41_
 + 42 x__5_0_42_ + 43 x__5_0_43_ + 44 x__5_0_44_ + 45 x__5_0_45_
 + 46 x__5_0_46_ + 47 x__5_0_47_ + 48 x__5_0_48_ + 49 x__5_0_49_ + 4 x__5_0_4_
 + 50 x__5_0_50_ + 51 x__5_0_51_ + 52 x__5_0_52_ + 53 x__5_0_53_
 + 54 x__5_0_54_ + 55 x__5_0_55_ + 56 x__5_0_56_ + 57 x__5_0_57_
 + 58 x__5_0_58_ + 59 x__5_0_59_ + 5 x__5_0_5_ + 60 x__5_0_60_ + 61 x__5_0_61_
 + 62 x__5_0_62_ + 63 x__5_0_63_ + 64 x__5_0_64_ + 65 x__5_0_65_
 + 66 x__5_0_66_ + 67 x__5_0_67_ + 68 x__5_0_68_ + 69 x__5_0_69_ + 6 x__5_0_6_
 + 70 x__5_0_70_ + 71 x__5_0_71_ + 72 x__5_0_72_ + 73 x__5_0_73_
 + 74 x__5_0_74_ + 75 x__5_0_75_ + 76 x__5_0_76_ + 77 x__5_0_77_
 + 78 x__5_0_78_ + 79 x__5_0_79_ + 7 x__5_0_7_ + 80 x__5_0_80_ + 8 x__5_0_8_
 + 9 x__5_0_9_ - 53648 x__E_5_0_ = 0
_C50: x__3_0_20_ + x__4_0_20_ + x__5_0_20_ + x__6_0_20_ + x__6_19_20_
 + x__7_0_20_ + x__7_19_20_ + x__8_0_20_ + x__8_19_20_ + x__8_38_20_
 <= 2.27157342215e+54
_C51: x__3_0_21_ + x__4_0_21_ + x__5_0_21_ + x__6_0_21_ + x__6_19_21_
 + x__7_0_21_ + x__7_19_21_ + x__8_0_21_ + x__8_19_21_ + x__8_38_21_
 <= 2.67137034444e+57
_C52: x__3_0_22_ + x__4_0_22_ + x__5_0_22_ + x__6_0_22_ + x__6_19_22_
 + x__7_0_22_ + x__7_19_22_ + x__8_0_22_ + x__8_19_22_ + x__8_38_22_
 <= 3.27242867194e+60
_C53: x__3_0_23_ + x__4_0_23_ + x__5_0_23_ + x__6_0_23_ + x__6_19_23_
 + x__7_0_23_ + x__7_19_23_ + x__8_0_23_ + x__8_19_23_ + x__8_38_23_
 <= 4.17234655673e+63
_C54: x__3_0_24_ + x__4_0_24_ + x__5_0_24_ + x__6_0_24_ + x__6_19_24_
 + x__7_0_24_ + x__7_19_24_ + x__8_0_24_ + x__8_19_24_ + x__8_38_24_
 <= 5.53253153422e+66
_C55: x__3_0_25_ + x__4_0_25_ + x__5_0_25_ + x__6_0_25_ + x__6_19_25_
 + x__7_0_25_ + x__7_19_25_ + x__8_0_25_ + x__8_19_25_ + x__8_38_25_
 <= 7.62382845416e+69
_C56: x__3_0_26_ + x__4_0_26_ + x__5_0_26_ + x__6_0_26_ + x__6_19_26_
 + x__7_0_26_ + x__7_19_26_ + x__8_0_26_ + x__8_19_26_ + x__8_38_26_
 <= 1.09096985179e+73
_C57: x__3_0_27_ + x__4_0_27_ + x__5_0_27_ + x__6_0_27_ + x__6_19_27_
 + x__7_0_27_ + x__7_19_27_ + x__8_0_27_ + x__8_19_27_ + x__8_38_27_
 <= 1.62009022991e+76
_C58: x__3_0_28_ + x__4_0_28_ + x__5_0_28_ + x__6_0_28_ + x__6_19_28_
 + x__7_0_28_ + x__7_19_28_ + x__8_0_28_ + x__8_19_28_ + x__8_38_28_
 <= 2.49493895406e+79
_C59: x__3_0_29_ + x__4_0_29_ + x__5_0_29_ + x__6_0_29_ + x__6_19_29_
 + x__7_0_29_ + x__7_19_29_ + x__8_0_29_ + x__8_19_29_ + x__8_38_29_
 <= 3.98192257068e+82
_C6: x__5_0_0_ + x__5_0_10_ + x__5_0_11_ + x__5_0_12_ + x__5_0_13_
 + x__5_0_14_ + x__5_0_15_ + x__5_0_16_ + x__5_0_17_ + x__5_0_18_ + x__5_0_19_
 + x__5_0_1_ + x__5_0_20_ + x__5_0_21_ + x__5_0_22_ + x__5_0_23_ + x__5_0_24_
 + x__5_0_25_ + x__5_0_26_ + x__5_0_27_ + x__5_0_28_ + x__5_0_29_ + x__5_0_2_
 + x__5_0_30_ + x__5_0_31_ + x__5_0_32_ + x__5_0_33_ + x__5_0_34_ + x__5_0_35_
 + x__5_0_36_ + x__5_0_37_ + x__5_0_38_ + x__5_0_39_ + x__5_0_3_ + x__5_0_40_
 + x__5_0_41_ + x__5_0_42_ + x__5_0_43_ + x__5_0_44_ + x__5_0_45_ + x__5_0_46_
 + x__5_0_47_ + x__5_0_48_ + x__5_0_49_ + x__5_0_4_ + x__5_0_50_ + x__5_0_51_
 + x__5_0_52_ + x__5_0_53_ + x__5_0_54_ + x__5_0_55_ + x__5_0_56_ + x__5_0_57_
 + x__5_0_58_ + x__5_0_59_ + x__5_0_5_ + x__5_0_60_ + x__5_0_61_ + x__5_0_62_
 + x__5_0_63_ + x__5_0_64_ + x__5_0_65_ + x__5_0_66_ + x__5_0_67_ + x__5_0_68_
 + x__5_0_69_ + x__5_0_6_ + x__5_0_70_ + x__5_0_71_ + x__5_0_72_ + x__5_0_73_
 + x__5_0_74_ + x__5_0_75_ + x__5_0_76_ + x__5_0_77_ + x__5_0_78_ + x__5_0_79_
 + x__5_0_7_ + x__5_0_80_ + x__5_0_8_ + x__5_0_9_ = 53648
_C60: x__3_0_30_ + x__4_0_30_ + x__5_0_30_ + x__6_0_30_ + x__6_19_30_
 + x__7_0_30_ + x__7_19_30_ + x__8_0_30_ + x__8_19_30_ + x__8_38_30_
 <= 6.58211800933e+85
_C61: x__3_0_31_ + x__4_0_31_ + x__5_0_31_ + x__6_0_31_ + x__6_19_31_
 + x__7_0_31_ + x__7_19_31_ + x__8_0_31_ + x__8_19_31_ + x__8_38_31_
 <= 1.1262003914e+89
_C62: x__3_0_32_ + x__4_0_32_ + x__5_0_32_ + x__6_0_32_ + x__6_19_32_
 + x__7_0_32_ + x__7_19_32_ + x__8_0_32_ + x__8_19_32_ + x__8_38_32_
 <= 1.99337469277e+92
_C63: x__3_0_33_ + x__4_0_33_ + x__5_0_33_ + x__6_0_33_ + x__6_19_33_
 + x__7_0_33_ + x__7_19_33_ + x__8_0_33_ + x__8_19_33_ + x__8_38_33_
 <= 3.64787568777e+95
_C64: x__3_0_34_ + x__4_0_34_ + x__5_0_34_ + x__6_0_34_ + x__6_19_34_
 + x__7_0_34_ + x__7_19_34_ + x__8_0_34_ + x__8_19_34_ + x__8_38_34_
 <= 6.89813292558e+98
_C65: x__3_0_35_ + x__4_0_35_ + x__5_0_35_ + x__6_0_35_ + x__6_19_35_
 + x__7_0_35_ + x__7_19_35_ + x__8_0_35_ + x__8_19_35_ + x__8_38_35_
 <= 1.34720536036e+102
_C66: x__3_0_36_ + x__4_0_36_ + x__5_0_36_ + x__6_0_36_ + x__6_19_36_
 + x__7_0_36_ + x__7_19_36_ + x__8_0_36_ + x__8_19_36_ + x__8_38_36_
 <= 2.7159660065e+105
_C67: x__3_0_37_ + x__4_0_37_ + x__5_0_37_ + x__6_0_37_ + x__6_19_37_
 + x__7_0_37_ + x__7_19_37_ + x__8_0_37_ + x__8_19_37_ + x__8_38_37_
 <= 5.64920929351e+108
_C68: x__3_0_38_ + x__4_0_38_ + x__5_0_38_ + x__6_0_38_ + x__6_19_38_
 + x__7_0_38_ + x__7_19_38_ + x__8_0_38_ + x__8_19_38_ + x__8_38_38_
 <= 1.21175539346e+112
_C69: x__3_0_39_ + x__4_0_39_ + x__5_0_39_ + x__6_0_39_ + x__6_19_39_
 + x__7_0_39_ + x__7_19_39_ + x__8_0_39_ + x__8_19_39_ + x__8_38_39_
 <= 2.67919117494e+115
_C7: 10 x__6_0_10_ + 11 x__6_0_11_ + 12 x__6_0_12_ + 13 x__6_0_13_
 + 14 x__6_0_14_ + 15 x__6_0_15_ + 16 x__6_0_16_ + 17 x__6_0_17_
 + 18 x__6_0_18_ + 19 x__6_0_19_ + x__6_0_1_ + 20 x__6_0_20_ + 21 x__6_0_21_
 + 22 x__6_0_22_ + 23 x__6_0_23_ + 24 x__6_0_24_ + 25 x__6_0_25_
 + 26 x__6_0_26_ + 27 x__6_0_27_ + 28 x__6_0_28_ + 29 x__6_0_29_ + 2 x__6_0_2_
 + 30 x__6_0_30_ + 31 x__6_0_31_ + 32 x__6_0_32_ + 33 x__6_0_33_
 + 34 x__6_0_34_ + 35 x__6_0_35_ + 36 x__6_0_36_ + 37 x__6_0_37_
 + 38 x__6_0_38_ + 39 x__6_0_39_ + 3 x__6_0_3_ + 40 x__6_0_40_ + 41 x__6_0_41_
 + 42 x__6_0_42_ + 43 x__6_0_43_ + 44 x__6_0_44_ + 45 x__6_0_45_
 + 46 x__6_0_46_ + 47 x__6_0_47_ + 48 x__6_0_48_ + 49 x__6_0_49_ + 4 x__6_0_4_
 + 50 x__6_0_50_ + 51 x__6_0_51_ + 52 x__6_0_52_ + 53 x__6_0_53_
 + 54 x__6_0_54_ + 55 x__6_0_55_ + 56 x__6_0_56_ + 57 x__6_0_57_
 + 58 x__6_0_58_ + 59 x__6_0_59_ + 5 x__6_0_5_ + 60 x__6_0_60_ + 61 x__6_0_61_
 + 62 x__6_0_62_ + 63 x__6_0_63_ + 64 x__6_0_64_ + 65 x__6_0_65_
 + 66 x__6_0_66_ + 67 x__6_0_67_ + 68 x__6_0_68_ + 69 x__6_0_69_ + 6 x__6_0_6_
 + 70 x__6_0_70_ + 71 x__6_0_71_ + 72 x__6_0_72_ + 73 x__6_0_73_
 + 74 x__6_0_74_ + 75 x__6_0_75_ + 76 x__6_0_76_ + 77 x__6_0_77_
 + 78 x__6_0_78_ + 79 x__6_0_79_ + 7 x__6_0_7_ + 80 x__6_0_80_ + 8 x__6_0_8_
 + 9 x__6_0_9_ - 29193388 x__E_6_0_ = 0
_C70: x__3_0_40_ + x__4_0_40_ + x__5_0_40_ + x__6_0_40_ + x__6_19_40_
 + x__7_0_40_ + x__7_19_40_ + x__8_0_40_ + x__8_19_40_ + x__8_38_40_
 <= 6.1031974965e+118
_C71: x__3_0_41_ + x__4_0_41_ + x__5_0_41_ + x__6_0_41_ + x__6_19_41_
 + x__7_0_41_ + x__7_19_41_ + x__8_0_41_ + x__8_19_41_ + x__8_38_41_
 <= 1.43181013268e+122
_C72: x__3_0_42_ + x__4_0_42_ + x__5_0_42_ + x__6_0_42_ + x__6_19_42_
 + x__7_0_42_ + x__7_19_42_ + x__8_0_42_ + x__8_19_42_ + x__8_38_42_
 <= 3.45782147042e+125
_C73: x__3_0_43_ + x__4_0_43_ + x__5_0_43_ + x__6_0_43_ + x__6_19_43_
 + x__7_0_43_ + x__7_19_43_ + x__8_0_43_ + x__8_19_43_ + x__8_38_43_
 <= 8.592686354e+128
_C74: x__3_0_44_ + x__4_0_44_ + x__5_0_44_ + x__6_0_44_ + x__6_19_44_
 + x__7_0_44_ + x__7_19_44_ + x__8_0_44_ + x__8_19_44_ + x__8_38_44_
 <= 2.19629063208e+132
_C75: x__3_0_45_ + x__4_0_45_ + x__5_0_45_ + x__6_0_45_ + x__6_19_45_
 + x__7_0_45_ + x__7_19_45_ + x__8_0_45_ + x__8_19_45_ + x__8_38_45_
 <= 5.77185178111e+135
_C76: x__3_0_46_ + x__4_0_46_ + x__5_0_46_ + x__6_0_46_ + x__6_19_46_
 + x__7_0_46_ + x__7_19_46_ + x__8_0_46_ + x__8_19_46_ + x__8_38_46_
 <= 1.55897716608e+139
_C77: x__3_0_47_ + x__4_0_47_ + x__5_0_47_ + x__6_0_47_ + x__6_19_47_
 + x__7_0_47_ + x__7_19_47_ + x__8_0_47_ + x__8_19_47_ + x__8_38_47_
 <= 4.32616163587e+142
_C78: x__3_0_48_ + x__4_0_48_ + x__5_0_48_ + x__6_0_48_ + x__6_19_48_
 + x__7_0_48_ + x__7_19_48_ + x__8_0_48_ + x__8_19_48_ + x__8_38_48_
 <= 1.23295606622e+146
_C79: x__3_0_49_ + x__4_0_49_ + x__5_0_49_ + x__6_0_49_ + x__6_19_49_
 + x__7_0_49_ + x__7_19_49_ + x__8_0_49_ + x__8_19_49_ + x__8_38_49_
 <= 3.60762944977e+149
_C8: x__6_0_0_ + x__6_0_10_ + x__6_0_11_ + x__6_0_12_ + x__6_0_13_
 + x__6_0_14_ + x__6_0_15_ + x__6_0_16_ + x__6_0_17_ + x__6_0_18_ + x__6_0_19_
 + x__6_0_1_ + x__6_0_20_ + x__6_0_21_ + x__6_0_22_ + x__6_0_23_ + x__6_0_24_
 + x__6_0_25_ + x__6_0_26_ + x__6_0_27_ + x__6_0_28_ + x__6_0_29_ + x__6_0_2_
 + x__6_0_30_ + x__6_0_31_ + x__6_0_32_ + x__6_0_33_ + x__6_0_34_ + x__6_0_35_
 + x__6_0_36_ + x__6_0_37_ + x__6_0_38_ + x__6_0_39_ + x__6_0_3_ + x__6_0_40_
 + x__6_0_41_ + x__6_0_42_ + x__6_0_43_ + x__6_0_44_ + x__6_0_45_ + x__6_0_46_
 + x__6_0_47_ + x__6_0_48_ + x__6_0_49_ + x__6_0_4_ + x__6_0_50_ + x__6_0_51_
 + x__6_0_52_ + x__6_0_53_ + x__6_0_54_ + x__6_0_55_ + x__6_0_56_ + x__6_0_57_
 + x__6_0_58_ + x__6_0_59_ + x__6_0_5_ + x__6_0_60_ + x__6_0_61_ + x__6_0_62_
 + x__6_0_63_ + x__6_0_64_ + x__6_0_65_ + x__6_0_66_ + x__6_0_67_ + x__6_0_68_
 + x__6_0_69_ + x__6_0_6_ + x__6_0_70_ + x__6_0_71_ + x__6_0_72_ + x__6_0_73_
 + x__6_0_74_ + x__6_0_75_ + x__6_0_76_ + x__6_0_77_ + x__6_0_78_ + x__6_0_79_
 + x__6_0_7_ + x__6_0_80_ + x__6_0_8_ + x__6_0_9_ = 29193388
_C80: x__3_0_50_ + x__4_0_50_ + x__5_0_50_ + x__6_0_50_ + x__6_19_50_
 + x__7_0_50_ + x__7_19_50_ + x__8_0_50_ + x__8_19_50_ + x__8_38_50_
 <= 1.08337112376e+153
_C81: x__3_0_51_ + x__4_0_51_ + x__5_0_51_ + x__6_0_51_ + x__6_19_51_
 + x__7_0_51_ + x__7_19_51_ + x__8_0_51_ + x__8_19_51_ + x__8_38_51_
 <= 3.33786643232e+156
_C82: x__3_0_52_ + x__4_0_52_ + x__5_0_52_ + x__6_0_52_ + x__6_19_52_
 + x__7_0_52_ + x__7_19_52_ + x__8_0_52_ + x__8_19_52_ + x__8_38_52_
 <= 1.05476579261e+160
_C83: x__3_0_53_ + x__4_0_53_ + x__5_0_53_ + x__6_0_53_ + x__6_19_53_
 + x__7_0_53_ + x__7_19_53_ + x__8_0_53_ + x__8_19_53_ + x__8_38_53_
 <= 3.41744116807e+163
_C84: x__3_0_54_ + x__4_0_54_ + x__5_0_54_ + x__6_0_54_ + x__6_19_54_
 + x__7_0_54_ + x__7_19_54_ + x__8_0_54_ + x__8_19_54_ + x__8_38_54_
 <= 1.13493221191e+167
_C85: x__3_0_55_ + x__4_0_55_ + x__5_0_55_ + x__6_0_55_ + x__6_19_55_
 + x__7_0_55_ + x__7_19_55_ + x__8_0_55_ + x__8_19_55_ + x__8_38_55_
 <= 3.86217431714e+170
_C86: x__3_0_56_ + x__4_0_56_ + x__5_0_56_ + x__6_0_56_ + x__6_19_56_
 + x__7_0_56_ + x__7_19_56_ + x__8_0_56_ + x__8_19_56_ + x__8_38_56_
 <= 1.34635396696e+174
_C87: x__3_0_57_ + x__4_0_57_ + x__5_0_57_ + x__6_0_57_ + x__6_19_57_
 + x__7_0_57_ + x__7_19_57_ + x__8_0_57_ + x__8_19_57_ + x__8_38_57_
 <= 4.80648366204e+177
_C88: x__3_0_58_ + x__4_0_58_ + x__5_0_58_ + x__6_0_58_ + x__6_19_58_
 + x__7_0_58_ + x__7_19_58_ + x__8_0_58_ + x__8_19_58_ + x__8_38_58_
 <= 1.75676977847e+181
_C89: x__3_0_59_ + x__4_0_59_ + x__5_0_59_ + x__6_0_59_ + x__6_19_59_
 + x__7_0_59_ + x__7_19_59_ + x__8_0_59_ + x__8_19_59_ + x__8_38_59_
 <= 6.57207574127e+184
_C9: 10 x__6_19_10_ + 11 x__6_19_11_ + 12 x__6_19_12_ + 13 x__6_19_13_
 + 14 x__6_19_14_ + 15 x__6_19_15_ + 16 x__6_19_16_ + 17 x__6_19_17_
 + 18 x__6_19_18_ + 19 x__6_19_19_ + x__6_19_1_ + 20 x__6_19_20_
 + 21 x__6_19_21_ + 22 x__6_19_22_ + 23 x__6_19_23_ + 24 x__6_19_24_
 + 25 x__6_19_25_ + 26 x__6_19_26_ + 27 x__6_19_27_ + 28 x__6_19_28_
 + 29 x__6_19_29_ + 2 x__6_19_2_ + 30 x__6_19_30_ + 31 x__6_19_31_
 + 32 x__6_19_32_ + 33 x__6_19_33_ + 34 x__6_19_34_ + 35 x__6_19_35_
 + 36 x__6_19_36_ + 37 x__6_19_37_ + 38 x__6_19_38_ + 39 x__6_19_39_
 + 3 x__6_19_3_ + 40 x__6_19_40_ + 41 x__6_19_41_ + 42 x__6_19_42_
 + 43 x__6_19_43_ + 44 x__6_19_44_ + 45 x__6_19_45_ + 46 x__6_19_46_
 + 47 x__6_19_47_ + 48 x__6_19_48_ + 49 x__6_19_49_ + 4 x__6_19_4_
 + 50 x__6_19_50_ + 51 x__6_19_51_ + 52 x__6_19_52_ + 53 x__6_19_53_
 + 54 x__6_19_54_ + 55 x__6_19_55_ + 56 x__6_19_56_ + 57 x__6_19_57_
 + 58 x__6_19_58_ + 59 x__6_19_59_ + 5 x__6_19_5_ + 60 x__6_19_60_
 + 61 x__6_19_61_ + 62 x__6_19_62_ + 63 x__6_19_63_ + 64 x__6_19_64_
 + 65 x__6_19_65_ + 66 x__6_19_66_ + 67 x__6_19_67_ + 68 x__6_19_68_
 + 69 x__6_19_69_ + 6 x__6_19_6_ + 70 x__6_19_70_ + 71 x__6_19_71_
 + 72 x__6_19_72_ + 73 x__6_19_73_ + 74 x__6_19_74_ + 75 x__6_19_75_
 + 76 x__6_19_76_ + 77 x__6_19_77_ + 78 x__6_19_78_ + 79 x__6_19_79_
 + 7 x__6_19_7_ + 80 x__6_19_80_ + 8 x__6_19_8_ + 9 x__6_19_9_
 - 588 x__E_6_19_ = 0
_C90: x__3_0_60_ + x__4_0_60_ + x__5_0_60_ + x__6_0_60_ + x__6_19_60_
 + x__7_0_60_ + x__7_19_60_ + x__8_0_60_ + x__8_19_60_ + x__8_38_60_
 <= 2.51579059376e+188
_C91: x__3_0_61_ + x__4_0_61_ + x__5_0_61_ + x__6_0_61_ + x__6_19_61_
 + x__7_0_61_ + x__7_19_61_ + x__8_0_61_ + x__8_19_61_ + x__8_38_61_
 <= 9.85183596516e+191
_C92: x__3_0_62_ + x__4_0_62_ + x__5_0_62_ + x__6_0_62_ + x__6_19_62_
 + x__7_0_62_ + x__7_19_62_ + x__8_0_62_ + x__8_19_62_ + x__8_38_62_
 <= 3.94566030405e+195
_C93: x__3_0_63_ + x__4_0_63_ + x__5_0_63_ + x__6_0_63_ + x__6_19_63_
 + x__7_0_63_ + x__7_19_63_ + x__8_0_63_ + x__8_19_63_ + x__8_38_63_
 <= 1.61574789451e+199
_C94: x__3_0_64_ + x__4_0_64_ + x__5_0_64_ + x__6_0_64_ + x__6_19_64_
 + x__7_0_64_ + x__7_19_64_ + x__8_0_64_ + x__8_19_64_ + x__8_38_64_
 <= 6.76352068641e+202
_C95: x__3_0_65_ + x__4_0_65_ + x__5_0_65_ + x__6_0_65_ + x__6_19_65_
 + x__7_0_65_ + x__7_19_65_ + x__8_0_65_ + x__8_19_65_ + x__8_38_65_
 <= 2.89343414964e+206
_C96: x__3_0_66_ + x__4_0_66_ + x__5_0_66_ + x__6_0_66_ + x__6_19_66_
 + x__7_0_66_ + x__7_19_66_ + x__8_0_66_ + x__8_19_66_ + x__8_38_66_
 <= 1.26472006681e+210
_C97: x__3_0_67_ + x__4_0_67_ + x__5_0_67_ + x__6_0_67_ + x__6_19_67_
 + x__7_0_67_ + x__7_19_67_ + x__8_0_67_ + x__8_19_67_ + x__8_38_67_
 <= 5.6469750983e+213
_C98: x__3_0_68_ + x__4_0_68_ + x__5_0_68_ + x__6_0_68_ + x__6_19_68_
 + x__7_0_68_ + x__7_19_68_ + x__8_0_68_ + x__8_19_68_ + x__8_38_68_
 <= 2.57502064483e+217
_C99: x__3_0_69_ + x__4_0_69_ + x__5_0_69_ + x__6_0_69_ + x__6_19_69_
 + x__7_0_69_ + x__7_19_69_ + x__8_0_69_ + x__8_19_69_ + x__8_38_69_
 <= 1.19892961223e+221
End
